SAT
-1 -100 99 -60 7 -50 36 10 -98 4 19 -2 -84 26 70 -63 -8 29 -54 -82 53 35 -83 17 5 37 -43 67 44 -38 -34 -62 92 90 41 45 72 -6 89 -80 59 -23 86 91 -46 97 -25 51 -78 -87 -76 77 -64 -16 -40 -39 -95 -57 -49 15 -79 21 96 56 -24 33 31 -75 -3 -11 -66 85 58 -9 32 -42 68 27 65 -81 94 -71 -13 47 18 55 22 74 -30 -14 73 88 61 28 48 -52 -20 69 93 -12 0
